# Solution for model GasLib-40
# Objective value = 8.2067599006586690e+01
loadshed[innode_1] 0
loadshed[innode_2] 0
loadshed[innode_3] 0
loadshed[innode_4] 0
loadshed[innode_5] 0
loadshed[innode_6] 0
loadshed[innode_7] 0
loadshed[innode_8] 0
loadshed[source_1] 3.3715014106801444e-02
loadshed[source_2] 1.8164922668287342e-01
loadshed[source_3] 3.0375432968902782e-01
loadshed[sink_1] 1
loadshed[sink_2] 0
loadshed[sink_3] 0
loadshed[sink_4] 0
loadshed[sink_5] 0
loadshed[sink_6] 0
loadshed[sink_7] 3.1475854700663608e-01
loadshed[sink_8] 0
loadshed[sink_9] 0
loadshed[sink_10] 0
loadshed[sink_11] 0
loadshed[sink_12] 1
loadshed[sink_13] 0
loadshed[sink_14] 0
loadshed[sink_15] 0
loadshed[sink_16] 0
loadshed[sink_17] 0
loadshed[sink_18] 0
loadshed[sink_19] 0
loadshed[sink_20] 0
loadshed[sink_21] 1
loadshed[sink_22] 7.0338763428783624e-01
loadshed[sink_23] 0
loadshed[sink_24] 1
loadshed[sink_25] 0
loadshed[sink_26] 0
loadshed[sink_27] 0
loadshed[sink_28] 0
loadshed[sink_29] 0
flow[source_1,sink_3] 1.5276026183235183e+02
flow[innode_1,sink_16] 1.6354166666666970e+01
flow[innode_6,sink_13] 4.4094952456304863e+00
flow[sink_13,sink_14] -1.1944671421036182e+01
flow[sink_14,sink_10] -2.8298838087702848e+01
flow[sink_25,sink_26] 0
flow[sink_26,sink_9] 6.5119900993413353e+01
flow[sink_9,sink_18] 4.8765734326746681e+01
flow[sink_26,sink_4] -81.47406766008
flow[sink_4,sink_20] 0
flow[sink_18,sink_6] 3.2411567660080010e+01
flow[sink_25,innode_8] -1.2005192849901546e+02
flow[sink_6,sink_7] 1.1206552929162306e+01
flow[sink_6,sink_22] 4.8508480642510126e+00
flow[sink_7,sink_24] 0
flow[sink_22,sink_1] 0
flow[sink_24,sink_21] 0
flow[sink_21,sink_12] 0
flow[sink_7,sink_5] 0
flow[sink_5,sink_17] -1.6354166666667197e+01
flow[sink_17,sink_4] 9.7828234326746667e+01
flow[sink_17,sink_8] -1.3053656766008055e+02
flow[sink_3,sink_23] 16.3541666666697
flow[sink_8,sink_20] -1.4689073432674721e+02
flow[sink_25,sink_20] 1.6324490099341381e+02
flow[sink_25,sink_15] -6.3956634406695883e+01
flow[sink_15,sink_29] -4.6824986301023635e+01
flow[sink_29,sink_28] 1.6354166666667879e+01
flow[sink_29,sink_2] 49.8399814390056
flow[sink_2,sink_15] 3.3485814772338927e+01
flow[sink_29,innode_7] -1.2937330107336379e+02
flow[innode_4,sink_19] 4.2288835856369460e+01
flow[sink_19,innode_3] 3.7752006444767389e+01
flow[innode_4,innode_5] 6.7780835564667214e+01
flow[sink_27,innode_5] -6.7780835564667214e+01
flow[sink_27,sink_19] 5.1426668898000543e+01
flow[sink_10,sink_11] 3.2708333333333641e+01
flow[sink_10,innode_2] -39.6093316429358
flow[sink_10,innode_3] -3.7752006444767389e+01
flow[innode_6,sink_25] -4.4094952456304863e+00
flow[sink_11,innode_1] 1.6354166666666970e+01
flow[sink_19,innode_2] 39.6093316429358
flow[source_3,innode_4] 1.1006967142103667e+02
flow[source_2,innode_7] 1.2937330107336379e+02
flow[sink_3,innode_8] 1.2005192849901546e+02
pressure[innode_1] 7.7054803430060474e+01
pressure[innode_2] 7.9300021506890573e+01
pressure[innode_3] 7.9216423963569611e+01
pressure[innode_4] 81.01325
pressure[innode_5] 8.0966626767204090e+01
pressure[innode_6] 7.5870942235241046e+01
pressure[innode_7] 81.01325
pressure[innode_8] 8.0502630801229657e+01
pressure[source_1] 81.01325
pressure[source_2] 81.01325
pressure[source_3] 81.01325
pressure[sink_1] 1.0132500000000002e+00
pressure[sink_2] 7.6290518037931534e+01
pressure[sink_3] 8.0502630801229657e+01
pressure[sink_4] 1.8053482203504807e+01
pressure[sink_5] 2.0573887535486968e+01
pressure[sink_6] 1.1670892593381685e+00
pressure[sink_7] 1.0132499999999995e+00
pressure[sink_8] 2.6717638564320129e+01
pressure[sink_9] 3.7970642326080468e+00
pressure[sink_10] 7.7206504737664019e+01
pressure[sink_11] 7.7054803430060474e+01
pressure[sink_12] 1.0132499999999993e+00
pressure[sink_13] 75.846633424847
pressure[sink_14] 7.5868009431815963e+01
pressure[sink_15] 7.6181194232854551e+01
pressure[sink_16] 76.0331535952428
pressure[sink_17] 2.1792154740841717e+01
pressure[sink_18] 2.0325746177811919e+00
pressure[sink_19] 7.9300021506890573e+01
pressure[sink_20] 3.6953856982684073e+01
pressure[sink_21] 1.0132499999999993e+00
pressure[sink_22] 1.0132500000000002e+00
pressure[sink_23] 8.0337912789569870e+01
pressure[sink_24] 1.0132499999999993e+00
pressure[sink_25] 7.5870942235241046e+01
pressure[sink_26] 7.6946583769017831e+00
pressure[sink_27] 8.0404171077534571e+01
pressure[sink_28] 7.7257738741995013e+01
pressure[sink_29] 77.5530210156122
interdiction[source_1,sink_3] 0
interdiction[innode_1,sink_16] 0
interdiction[innode_6,sink_13] 0
interdiction[sink_13,sink_14] 0
interdiction[sink_14,sink_10] 0
interdiction[sink_25,sink_26] 1
interdiction[sink_26,sink_9] 0
interdiction[sink_9,sink_18] 0
interdiction[sink_26,sink_4] 0
interdiction[sink_4,sink_20] 1
interdiction[sink_18,sink_6] 0
interdiction[sink_25,innode_8] 0
interdiction[sink_6,sink_7] 0
interdiction[sink_6,sink_22] 0
interdiction[sink_7,sink_24] 0
interdiction[sink_22,sink_1] 0
interdiction[sink_24,sink_21] 0
interdiction[sink_21,sink_12] 0
interdiction[sink_7,sink_5] 1
interdiction[sink_5,sink_17] 0
interdiction[sink_17,sink_4] 0
interdiction[sink_17,sink_8] 0
interdiction[sink_3,sink_23] 0
interdiction[sink_8,sink_20] 0
interdiction[sink_25,sink_20] 0
interdiction[sink_25,sink_15] 0
interdiction[sink_15,sink_29] 0
interdiction[sink_29,sink_28] 0
interdiction[sink_29,sink_2] 0
interdiction[sink_2,sink_15] 0
interdiction[sink_29,innode_7] 0
interdiction[innode_4,sink_19] 0
interdiction[sink_19,innode_3] 0
interdiction[innode_4,innode_5] 0
interdiction[sink_27,innode_5] 0
interdiction[sink_27,sink_19] 0
interdiction[sink_10,sink_11] 0
interdiction[sink_10,innode_2] 0
interdiction[sink_10,innode_3] 0
interdiction[innode_6,sink_25] 0
interdiction[sink_11,innode_1] 0
interdiction[sink_19,innode_2] 0
interdiction[source_3,innode_4] 0
interdiction[source_2,innode_7] 0
interdiction[sink_3,innode_8] 0
WCcheckFlow[source_1,sink_3] 39
WCcheckFlow[innode_1,sink_16] 1
WCcheckFlow[innode_6,sink_13] 13
WCcheckFlow[sink_13,sink_14] 12
WCcheckFlow[sink_14,sink_10] 11
WCcheckFlow[sink_25,sink_26] 0
WCcheckFlow[sink_26,sink_9] 9
WCcheckFlow[sink_9,sink_18] 8
WCcheckFlow[sink_26,sink_4] -10
WCcheckFlow[sink_4,sink_20] 0
WCcheckFlow[sink_18,sink_6] 7
WCcheckFlow[sink_25,innode_8] -36
WCcheckFlow[sink_6,sink_7] 4
WCcheckFlow[sink_6,sink_22] 2
WCcheckFlow[sink_7,sink_24] 3
WCcheckFlow[sink_22,sink_1] 1
WCcheckFlow[sink_24,sink_21] 2
WCcheckFlow[sink_21,sink_12] 1
WCcheckFlow[sink_7,sink_5] 0
WCcheckFlow[sink_5,sink_17] -1
WCcheckFlow[sink_17,sink_4] 11
WCcheckFlow[sink_17,sink_8] -13
WCcheckFlow[sink_3,sink_23] 1
WCcheckFlow[sink_8,sink_20] -14
WCcheckFlow[sink_25,sink_20] 15
WCcheckFlow[sink_25,sink_15] 6
WCcheckFlow[sink_15,sink_29] 5
WCcheckFlow[sink_29,sink_28] 1
WCcheckFlow[sink_29,sink_2] 1
WCcheckFlow[sink_2,sink_15] 0
WCcheckFlow[sink_29,innode_7] 2
WCcheckFlow[innode_4,sink_19] -4
WCcheckFlow[sink_19,innode_3] -5
WCcheckFlow[innode_4,innode_5] 2
WCcheckFlow[sink_27,innode_5] -1
WCcheckFlow[sink_27,sink_19] 0
WCcheckFlow[sink_10,sink_11] 3
WCcheckFlow[sink_10,innode_2] 1
WCcheckFlow[sink_10,innode_3] 6
WCcheckFlow[innode_6,sink_25] -14
WCcheckFlow[sink_11,innode_1] 2
WCcheckFlow[sink_19,innode_2] 0
WCcheckFlow[source_3,innode_4] -1
WCcheckFlow[source_2,innode_7] -1
WCcheckFlow[sink_3,innode_8] 37
